maximize
OBJ:100x0 + 100x1 + 100x2 + 100x3 + 100x4 + 100x5 + 100x6 + 100x7 + 100x8 + 100x9 + 100x10 + 100x11 + 100x12 + 100x13 + 100x14 + 100x15 + 100x16 + 100x17 + 100x18 + 100x19 + 100x20 + 100x21 + 100x22 + 100x23 + 100x24 + 100x25 + 100x26 + 100x27 + 100x28 + 100x29 + 100x30 + 100x31 + 100x32 + 100x33 + 100x34 + 100x35 + 100x36 + 100x37 + 100x38 + 100x39 + 100x40 + 100x41 + 100x42 + 100x43 + 100x44 + 100x45 + 100x46 + 100x47 + 100x48 + 100x49 + 100x50 + 100x51 + 100x52 + 100x53 + 100x54 + 100x55 + 100x56 + 100x57 + 100x58 + 100x59 - y36_53 - y15_30 - y18_26 - y15_39 - y26_39 - y28_58 - y7_35 - y29_32 - y8_9 - y8_18 - y48_54 - y0_14 - y6_48 - y0_23 - y41_51 - y10_45 - y3_6 - y25_52 - y3_15 - y14_24 - y3_33 - y22_46 - y3_42 - y14_51 - y15_16 - y36_48 - y36_57 - y28_53 - y9_58 - y6_34 - y48_49 - y29_45 - y29_54 - y51_59 - y22_32 - y13_51 - y14_28 - y3_37 - y17_39 - y47_52 - y28_48 - y5_55 - y17_57 - y29_31 - y21_27 - y29_40 - y21_45 - y6_56 - y10_35 - y33_37 - y2_31 - y51_54 - y3_14 - y32_50 - y3_23 - y14_23 - y43_59 - y1_53 - y24_55 - y35_55 - y17_34 - y7_11 - y5_41 - y47_56 - y9_39 - y5_50 - y17_52 - y6_24 - y50_58 - y6_33 - y6_42 - y40_44 - y6_51 - y21_49 - y2_8 - y10_21 - y2_17 - y31_53 - y10_39 - y43_45 - y3_18 - y14_18 - y16_37 - y13_50 - y35_50 - y43_54 - y24_59 - y17_20 - y28_38 - y17_47 - y6_10 - y9_43 - y28_56 - y6_19 - y50_53 - y29_30 - y21_26 - y6_37 - y42_58 - y39_43 - y2_3 - y20_39 - y10_16 - y2_21 - y20_57 - y4_49 - y3_4 - y13_36 - y35_36 - y32_49 - y13_45 - y35_45 - y13_54 - y35_54 - y5_22 - y28_33 - y27_55 - y0_56 - y39_47 - y2_7 - y31_43 - y39_56 - y12_39 - y20_52 - y31_52 - y23_48 - y12_57 - y13_22 - y32_35 - y32_44 - y1_38 - y1_47 - y35_58 - y16_54 - y17_19 - y9_15 - y49_51 - y5_26 - y27_41 - y6_18 - y27_50 - y50_52 - y8_46 - y42_48 - y27_59 - y30_55 - y11_51 - y20_29 - y12_34 - y2_11 - y23_43 - y20_56 - y12_52 - y4_48 - y1_24 - y34_58 - y1_33 - y24_35 - y35_44 - y46_59 - y57_59 - y38_55 - y27_45 - y42_43 - y27_54 - y30_50 - y19_59 - y0_55 - y20_33 - y12_29 - y20_42 - y4_34 - y23_47 - y1_10 - y4_43 - y23_56 - y13_21 - y13_30 - y16_35 - y9_14 - y5_25 - y49_59 - y27_31 - y8_27 - y8_36 - y8_45 - y42_47 - y27_58 - y42_56 - y20_28 - y4_11 - y39_41 - y12_24 - y23_24 - y4_29 - y23_42 - y34_39 - y1_14 - y34_48 - y45_57 - y56_57 - y15_34 - y46_49 - y15_43 - y57_58 - y7_39 - y7_48 - y0_18 - y11_18 - y19_31 - y30_31 - y0_27 - y30_40 - y8_49 - y0_45 - y4_6 - y0_54 - y4_15 - y12_28 - y4_24 - y23_37 - y4_33 - y45_52 - y3_46 - y37_48 - y14_55 - y15_29 - y7_25 - y26_38 - y18_43 - y0_4 - y27_30 - y0_13 - y8_26 - y30_35 - y0_31 - y41_59 - y4_19 - y44_55 - y1_4 - y1_13 - y22_45 - y34_47 - y45_47 - y14_41 - y22_54 - y3_50 - y37_52 - y15_24 - y7_29 - y18_29 - y7_38 - y18_47 - y8_12 - y7_56 - y0_17 - y11_17 - y8_30 - y19_30 - y10_48 - y2_44 - y25_46 - y33_59 - y2_53 - y22_31 - y14_27 - y34_42 - y22_49 - y45_51 - y22_58 - y37_56 - y7_15 - y15_37 - y7_42 - y18_42 - y8_16 - y48_52 - y19_25 - y29_57 - y40_57 - y25_32 - y44_45 - y52_58 - y2_39 - y10_52 - y33_54 - y2_57 - y25_59 - y3_40 - y3_49 - y7_10 - y15_23 - y55_59 - y18_19 - y15_32 - y9_56 - y48_56 - y21_39 - y6_59 - y41_44 - y33_40 - y10_47 - y51_57 - y14_17 - y22_30 - y14_26 - y22_39 - y14_35 - y3_44 - y7_23 - y21_43 - y29_56 - y40_56 - y10_15 - y54_58 - y33_35 - y25_40 - y3_12 - y22_25 - y32_57 - y35_53 - y16_58 - y55_58 - y47_54 - y5_48 - y28_50 - y9_46 - y17_59 - y6_31 - y29_42 - y6_49 - y2_6 - y10_19 - y2_15 - y2_33 - y3_7 - y32_43 - y24_39 - y14_16 - y35_48 - y16_44 - y1_55 - y24_57 - y16_53 - y36_40 - y36_49 - y28_45 - y47_58 - y9_41 - y6_26 - y6_35 - y20_46 - y39_59 - y2_19 - y20_55 - y54_57 - y32_38 - y13_34 - y1_41 - y13_43 - y24_43 - y43_56 - y1_50 - y9_27 - y17_40 - y28_40 - y9_36 - y5_56 - y6_21 - y9_54 - y42_51 - y8_58 - y39_45 - y31_41 - y10_18 - y39_54 - y12_46 - y4_42 - y12_55 - y4_51 - y32_33 - y32_42 - y1_36 - y1_45 - y16_43 - y35_56 - y46_53 - y17_26 - y36_39 - y9_22 - y38_58 - y5_33 - y9_31 - y9_40 - y8_53 - y42_55 - y31_36 - y12_32 - y31_45 - y39_58 - y23_41 - y54_56 - y4_37 - y23_50 - y4_46 - y12_59 - y23_59 - y16_29 - y1_40 - y35_42 - y35_51 - y17_30 - y28_30 - y9_26 - y8_39 - y19_39 - y50_54 - y8_48 - y30_48 - y19_57 - y20_22 - y12_27 - y4_23 - y39_53 - y20_58 - y31_58 - y12_54 - y24_37 - y35_37 - y16_33 - y16_42 - y38_39 - y5_14 - y9_12 - y15_55 - y19_34 - y30_34 - y19_43 - y0_39 - y30_52 - y20_26 - y11_57 - y4_18 - y31_44 - y4_27 - y12_40 - y12_49 - y1_21 - y45_55 - y16_28 - y3_58 - y5_9 - y46_56 - y15_50 - y26_59 - y8_20 - y19_20 - y19_38 - y27_51 - y19_47 - y0_43 - y11_52 - y12_17 - y20_30 - y23_26 - y31_39 - y12_35 - y4_31 - y45_50 - y37_46 - y34_59 - y45_59 - y14_53 - y26_36 - y46_51 - y26_45 - y38_47 - y7_41 - y27_28 - y0_11 - y11_20 - y27_46 - y30_42 - y4_8 - y44_53 - y12_30 - y25_49 - y4_35 - y22_34 - y34_36 - y1_11 - y22_43 - y37_41 - y3_48 - y14_57 - y7_18 - y18_27 - y26_49 - y8_10 - y0_6 - y7_54 - y48_55 - y0_15 - y11_15 - y11_24 - y8_37 - y19_37 - y21_56 - y0_33 - y41_43 - y10_55 - y2_51 - y3_34 - y22_47 - y3_43 - y45_58 - y15_17 - y7_22 - y18_22 - y26_44 - y18_40 - y0_1 - y7_49 - y48_59 - y6_53 - y40_55 - y10_41 - y52_56 - y33_52 - y2_46 - y34_35 - y3_29 - y14_29 - y34_44 - y3_38 - y14_47 - y7_8
 Subject to
C1: x0+x1-y0_1 <=1 
C2: x0+x2 <=1 
C3: x0+x4-y0_4 <=1 
C4: x0+x6-y0_6 <=1 
C5: x0+x7 <=1 
C6: x0+x9 <=1 
C7: x0+x10 <=1 
C8: x0+x11-y0_11 <=1 
C9: x0+x13-y0_13 <=1 
C10: x0+x14-y0_14 <=1 
C11: x0+x15-y0_15 <=1 
C12: x0+x17-y0_17 <=1 
C13: x0+x18-y0_18 <=1 
C14: x0+x20 <=1 
C15: x0+x21 <=1 
C16: x0+x22 <=1 
C17: x0+x23-y0_23 <=1 
C18: x0+x26 <=1 
C19: x0+x27-y0_27 <=1 
C20: x0+x29 <=1 
C21: x0+x31-y0_31 <=1 
C22: x0+x32 <=1 
C23: x0+x33-y0_33 <=1 
C24: x0+x34 <=1 
C25: x0+x38 <=1 
C26: x0+x39-y0_39 <=1 
C27: x0+x42 <=1 
C28: x0+x43-y0_43 <=1 
C29: x0+x45-y0_45 <=1 
C30: x0+x47 <=1 
C31: x0+x54-y0_54 <=1 
C32: x0+x55-y0_55 <=1 
C33: x0+x56-y0_56 <=1 
C34: x0+x57 <=1 
C35: x0+x58 <=1 
C36: x1+x4-y1_4 <=1 
C37: x1+x10-y1_10 <=1 
C38: x1+x11-y1_11 <=1 
C39: x1+x13-y1_13 <=1 
C40: x1+x14-y1_14 <=1 
C41: x1+x16 <=1 
C42: x1+x17 <=1 
C43: x1+x18 <=1 
C44: x1+x21-y1_21 <=1 
C45: x1+x23 <=1 
C46: x1+x24-y1_24 <=1 
C47: x1+x25 <=1 
C48: x1+x26 <=1 
C49: x1+x29 <=1 
C50: x1+x30 <=1 
C51: x1+x31 <=1 
C52: x1+x32 <=1 
C53: x1+x33-y1_33 <=1 
C54: x1+x34 <=1 
C55: x1+x36-y1_36 <=1 
C56: x1+x37 <=1 
C57: x1+x38-y1_38 <=1 
C58: x1+x40-y1_40 <=1 
C59: x1+x41-y1_41 <=1 
C60: x1+x44 <=1 
C61: x1+x45-y1_45 <=1 
C62: x1+x47-y1_47 <=1 
C63: x1+x50-y1_50 <=1 
C64: x1+x53-y1_53 <=1 
C65: x1+x54 <=1 
C66: x1+x55-y1_55 <=1 
C67: x1+x58 <=1 
C68: x1+x59 <=1 
C69: x2+x3-y2_3 <=1 
C70: x2+x5 <=1 
C71: x2+x6-y2_6 <=1 
C72: x2+x7-y2_7 <=1 
C73: x2+x8-y2_8 <=1 
C74: x2+x10 <=1 
C75: x2+x11-y2_11 <=1 
C76: x2+x12 <=1 
C77: x2+x13 <=1 
C78: x2+x14 <=1 
C79: x2+x15-y2_15 <=1 
C80: x2+x17-y2_17 <=1 
C81: x2+x19-y2_19 <=1 
C82: x2+x20 <=1 
C83: x2+x21-y2_21 <=1 
C84: x2+x22 <=1 
C85: x2+x25 <=1 
C86: x2+x31-y2_31 <=1 
C87: x2+x32 <=1 
C88: x2+x33-y2_33 <=1 
C89: x2+x37 <=1 
C90: x2+x39-y2_39 <=1 
C91: x2+x40 <=1 
C92: x2+x41 <=1 
C93: x2+x43 <=1 
C94: x2+x44-y2_44 <=1 
C95: x2+x46-y2_46 <=1 
C96: x2+x47 <=1 
C97: x2+x51-y2_51 <=1 
C98: x2+x52 <=1 
C99: x2+x53-y2_53 <=1 
C100: x2+x54 <=1 
C101: x2+x56 <=1 
C102: x2+x57-y2_57 <=1 
C103: x2+x58 <=1 
C104: x2+x59 <=1 
C105: x3+x4-y3_4 <=1 
C106: x3+x6-y3_6 <=1 
C107: x3+x7-y3_7 <=1 
C108: x3+x11 <=1 
C109: x3+x12-y3_12 <=1 
C110: x3+x14-y3_14 <=1 
C111: x3+x15-y3_15 <=1 
C112: x3+x18-y3_18 <=1 
C113: x3+x19 <=1 
C114: x3+x21 <=1 
C115: x3+x22 <=1 
C116: x3+x23-y3_23 <=1 
C117: x3+x28 <=1 
C118: x3+x29-y3_29 <=1 
C119: x3+x31 <=1 
C120: x3+x32 <=1 
C121: x3+x33-y3_33 <=1 
C122: x3+x34-y3_34 <=1 
C123: x3+x36 <=1 
C124: x3+x37-y3_37 <=1 
C125: x3+x38-y3_38 <=1 
C126: x3+x39 <=1 
C127: x3+x40-y3_40 <=1 
C128: x3+x42-y3_42 <=1 
C129: x3+x43-y3_43 <=1 
C130: x3+x44-y3_44 <=1 
C131: x3+x45 <=1 
C132: x3+x46-y3_46 <=1 
C133: x3+x47 <=1 
C134: x3+x48-y3_48 <=1 
C135: x3+x49-y3_49 <=1 
C136: x3+x50-y3_50 <=1 
C137: x3+x51 <=1 
C138: x3+x54 <=1 
C139: x3+x55 <=1 
C140: x3+x57 <=1 
C141: x3+x58-y3_58 <=1 
C142: x3+x59 <=1 
C143: x4+x6-y4_6 <=1 
C144: x4+x8-y4_8 <=1 
C145: x4+x9 <=1 
C146: x4+x10 <=1 
C147: x4+x11-y4_11 <=1 
C148: x4+x15-y4_15 <=1 
C149: x4+x18-y4_18 <=1 
C150: x4+x19-y4_19 <=1 
C151: x4+x21 <=1 
C152: x4+x22 <=1 
C153: x4+x23-y4_23 <=1 
C154: x4+x24-y4_24 <=1 
C155: x4+x26 <=1 
C156: x4+x27-y4_27 <=1 
C157: x4+x28 <=1 
C158: x4+x29-y4_29 <=1 
C159: x4+x30 <=1 
C160: x4+x31-y4_31 <=1 
C161: x4+x32 <=1 
C162: x4+x33-y4_33 <=1 
C163: x4+x34-y4_34 <=1 
C164: x4+x35-y4_35 <=1 
C165: x4+x37-y4_37 <=1 
C166: x4+x39 <=1 
C167: x4+x40 <=1 
C168: x4+x41 <=1 
C169: x4+x42-y4_42 <=1 
C170: x4+x43-y4_43 <=1 
C171: x4+x46-y4_46 <=1 
C172: x4+x48-y4_48 <=1 
C173: x4+x49-y4_49 <=1 
C174: x4+x51-y4_51 <=1 
C175: x4+x52 <=1 
C176: x4+x55 <=1 
C177: x4+x57 <=1 
C178: x5+x6 <=1 
C179: x5+x9-y5_9 <=1 
C180: x5+x10 <=1 
C181: x5+x12 <=1 
C182: x5+x13 <=1 
C183: x5+x14-y5_14 <=1 
C184: x5+x15 <=1 
C185: x5+x16 <=1 
C186: x5+x21 <=1 
C187: x5+x22-y5_22 <=1 
C188: x5+x24 <=1 
C189: x5+x25-y5_25 <=1 
C190: x5+x26-y5_26 <=1 
C191: x5+x30 <=1 
C192: x5+x31 <=1 
C193: x5+x33-y5_33 <=1 
C194: x5+x34 <=1 
C195: x5+x35 <=1 
C196: x5+x36 <=1 
C197: x5+x40 <=1 
C198: x5+x41-y5_41 <=1 
C199: x5+x44 <=1 
C200: x5+x48-y5_48 <=1 
C201: x5+x50-y5_50 <=1 
C202: x5+x53 <=1 
C203: x5+x55-y5_55 <=1 
C204: x5+x56-y5_56 <=1 
C205: x5+x57 <=1 
C206: x5+x58 <=1 
C207: x6+x10-y6_10 <=1 
C208: x6+x13 <=1 
C209: x6+x14 <=1 
C210: x6+x15 <=1 
C211: x6+x17 <=1 
C212: x6+x18-y6_18 <=1 
C213: x6+x19-y6_19 <=1 
C214: x6+x21-y6_21 <=1 
C215: x6+x23 <=1 
C216: x6+x24-y6_24 <=1 
C217: x6+x25 <=1 
C218: x6+x26-y6_26 <=1 
C219: x6+x27 <=1 
C220: x6+x28 <=1 
C221: x6+x29 <=1 
C222: x6+x30 <=1 
C223: x6+x31-y6_31 <=1 
C224: x6+x33-y6_33 <=1 
C225: x6+x34-y6_34 <=1 
C226: x6+x35-y6_35 <=1 
C227: x6+x37-y6_37 <=1 
C228: x6+x38 <=1 
C229: x6+x39 <=1 
C230: x6+x42-y6_42 <=1 
C231: x6+x43 <=1 
C232: x6+x45 <=1 
C233: x6+x47 <=1 
C234: x6+x48-y6_48 <=1 
C235: x6+x49-y6_49 <=1 
C236: x6+x50 <=1 
C237: x6+x51-y6_51 <=1 
C238: x6+x53-y6_53 <=1 
C239: x6+x54 <=1 
C240: x6+x55 <=1 
C241: x6+x56-y6_56 <=1 
C242: x6+x57 <=1 
C243: x6+x59-y6_59 <=1 
C244: x7+x8-y7_8 <=1 
C245: x7+x10-y7_10 <=1 
C246: x7+x11-y7_11 <=1 
C247: x7+x13 <=1 
C248: x7+x15-y7_15 <=1 
C249: x7+x17 <=1 
C250: x7+x18-y7_18 <=1 
C251: x7+x22-y7_22 <=1 
C252: x7+x23-y7_23 <=1 
C253: x7+x24 <=1 
C254: x7+x25-y7_25 <=1 
C255: x7+x26 <=1 
C256: x7+x29-y7_29 <=1 
C257: x7+x32 <=1 
C258: x7+x34 <=1 
C259: x7+x35-y7_35 <=1 
C260: x7+x36 <=1 
C261: x7+x37 <=1 
C262: x7+x38-y7_38 <=1 
C263: x7+x39-y7_39 <=1 
C264: x7+x41-y7_41 <=1 
C265: x7+x42-y7_42 <=1 
C266: x7+x48-y7_48 <=1 
C267: x7+x49-y7_49 <=1 
C268: x7+x50 <=1 
C269: x7+x51 <=1 
C270: x7+x54-y7_54 <=1 
C271: x7+x56-y7_56 <=1 
C272: x7+x57 <=1 
C273: x7+x58 <=1 
C274: x8+x9-y8_9 <=1 
C275: x8+x10-y8_10 <=1 
C276: x8+x12-y8_12 <=1 
C277: x8+x13 <=1 
C278: x8+x15 <=1 
C279: x8+x16-y8_16 <=1 
C280: x8+x18-y8_18 <=1 
C281: x8+x20-y8_20 <=1 
C282: x8+x26-y8_26 <=1 
C283: x8+x27-y8_27 <=1 
C284: x8+x30-y8_30 <=1 
C285: x8+x32 <=1 
C286: x8+x33 <=1 
C287: x8+x34 <=1 
C288: x8+x35 <=1 
C289: x8+x36-y8_36 <=1 
C290: x8+x37-y8_37 <=1 
C291: x8+x38 <=1 
C292: x8+x39-y8_39 <=1 
C293: x8+x40 <=1 
C294: x8+x42 <=1 
C295: x8+x44 <=1 
C296: x8+x45-y8_45 <=1 
C297: x8+x46-y8_46 <=1 
C298: x8+x47 <=1 
C299: x8+x48-y8_48 <=1 
C300: x8+x49-y8_49 <=1 
C301: x8+x51 <=1 
C302: x8+x53-y8_53 <=1 
C303: x8+x55 <=1 
C304: x8+x58-y8_58 <=1 
C305: x9+x10 <=1 
C306: x9+x11 <=1 
C307: x9+x12-y9_12 <=1 
C308: x9+x14-y9_14 <=1 
C309: x9+x15-y9_15 <=1 
C310: x9+x17 <=1 
C311: x9+x22-y9_22 <=1 
C312: x9+x23 <=1 
C313: x9+x24 <=1 
C314: x9+x25 <=1 
C315: x9+x26-y9_26 <=1 
C316: x9+x27-y9_27 <=1 
C317: x9+x31-y9_31 <=1 
C318: x9+x32 <=1 
C319: x9+x34 <=1 
C320: x9+x35 <=1 
C321: x9+x36-y9_36 <=1 
C322: x9+x38 <=1 
C323: x9+x39-y9_39 <=1 
C324: x9+x40-y9_40 <=1 
C325: x9+x41-y9_41 <=1 
C326: x9+x42 <=1 
C327: x9+x43-y9_43 <=1 
C328: x9+x44 <=1 
C329: x9+x45 <=1 
C330: x9+x46-y9_46 <=1 
C331: x9+x47 <=1 
C332: x9+x48 <=1 
C333: x9+x50 <=1 
C334: x9+x51 <=1 
C335: x9+x53 <=1 
C336: x9+x54-y9_54 <=1 
C337: x9+x56-y9_56 <=1 
C338: x9+x58-y9_58 <=1 
C339: x10+x11 <=1 
C340: x10+x12 <=1 
C341: x10+x14 <=1 
C342: x10+x15-y10_15 <=1 
C343: x10+x16-y10_16 <=1 
C344: x10+x18-y10_18 <=1 
C345: x10+x19-y10_19 <=1 
C346: x10+x20 <=1 
C347: x10+x21-y10_21 <=1 
C348: x10+x22 <=1 
C349: x10+x23 <=1 
C350: x10+x25 <=1 
C351: x10+x27 <=1 
C352: x10+x29 <=1 
C353: x10+x32 <=1 
C354: x10+x33 <=1 
C355: x10+x34 <=1 
C356: x10+x35-y10_35 <=1 
C357: x10+x37 <=1 
C358: x10+x38 <=1 
C359: x10+x39-y10_39 <=1 
C360: x10+x41-y10_41 <=1 
C361: x10+x44 <=1 
C362: x10+x45-y10_45 <=1 
C363: x10+x47-y10_47 <=1 
C364: x10+x48-y10_48 <=1 
C365: x10+x49 <=1 
C366: x10+x52-y10_52 <=1 
C367: x10+x53 <=1 
C368: x10+x54 <=1 
C369: x10+x55-y10_55 <=1 
C370: x10+x56 <=1 
C371: x10+x58 <=1 
C372: x11+x12 <=1 
C373: x11+x14 <=1 
C374: x11+x15-y11_15 <=1 
C375: x11+x17-y11_17 <=1 
C376: x11+x18-y11_18 <=1 
C377: x11+x20-y11_20 <=1 
C378: x11+x22 <=1 
C379: x11+x24-y11_24 <=1 
C380: x11+x26 <=1 
C381: x11+x27 <=1 
C382: x11+x28 <=1 
C383: x11+x29 <=1 
C384: x11+x32 <=1 
C385: x11+x33 <=1 
C386: x11+x36 <=1 
C387: x11+x44 <=1 
C388: x11+x46 <=1 
C389: x11+x49 <=1 
C390: x11+x50 <=1 
C391: x11+x51-y11_51 <=1 
C392: x11+x52-y11_52 <=1 
C393: x11+x56 <=1 
C394: x11+x57-y11_57 <=1 
C395: x11+x59 <=1 
C396: x12+x14 <=1 
C397: x12+x16 <=1 
C398: x12+x17-y12_17 <=1 
C399: x12+x19 <=1 
C400: x12+x22 <=1 
C401: x12+x24-y12_24 <=1 
C402: x12+x26 <=1 
C403: x12+x27-y12_27 <=1 
C404: x12+x28-y12_28 <=1 
C405: x12+x29-y12_29 <=1 
C406: x12+x30-y12_30 <=1 
C407: x12+x32-y12_32 <=1 
C408: x12+x33 <=1 
C409: x12+x34-y12_34 <=1 
C410: x12+x35-y12_35 <=1 
C411: x12+x37 <=1 
C412: x12+x39-y12_39 <=1 
C413: x12+x40-y12_40 <=1 
C414: x12+x42 <=1 
C415: x12+x45 <=1 
C416: x12+x46-y12_46 <=1 
C417: x12+x47 <=1 
C418: x12+x49-y12_49 <=1 
C419: x12+x52-y12_52 <=1 
C420: x12+x53 <=1 
C421: x12+x54-y12_54 <=1 
C422: x12+x55-y12_55 <=1 
C423: x12+x56 <=1 
C424: x12+x57-y12_57 <=1 
C425: x12+x58 <=1 
C426: x12+x59-y12_59 <=1 
C427: x13+x16 <=1 
C428: x13+x17 <=1 
C429: x13+x21-y13_21 <=1 
C430: x13+x22-y13_22 <=1 
C431: x13+x25 <=1 
C432: x13+x30-y13_30 <=1 
C433: x13+x31 <=1 
C434: x13+x32 <=1 
C435: x13+x33 <=1 
C436: x13+x34-y13_34 <=1 
C437: x13+x36-y13_36 <=1 
C438: x13+x37 <=1 
C439: x13+x39 <=1 
C440: x13+x40 <=1 
C441: x13+x43-y13_43 <=1 
C442: x13+x44 <=1 
C443: x13+x45-y13_45 <=1 
C444: x13+x48 <=1 
C445: x13+x50-y13_50 <=1 
C446: x13+x51-y13_51 <=1 
C447: x13+x52 <=1 
C448: x13+x54-y13_54 <=1 
C449: x13+x56 <=1 
C450: x14+x15 <=1 
C451: x14+x16-y14_16 <=1 
C452: x14+x17-y14_17 <=1 
C453: x14+x18-y14_18 <=1 
C454: x14+x22 <=1 
C455: x14+x23-y14_23 <=1 
C456: x14+x24-y14_24 <=1 
C457: x14+x25 <=1 
C458: x14+x26-y14_26 <=1 
C459: x14+x27-y14_27 <=1 
C460: x14+x28-y14_28 <=1 
C461: x14+x29-y14_29 <=1 
C462: x14+x35-y14_35 <=1 
C463: x14+x36 <=1 
C464: x14+x38 <=1 
C465: x14+x41-y14_41 <=1 
C466: x14+x42 <=1 
C467: x14+x44 <=1 
C468: x14+x45 <=1 
C469: x14+x47-y14_47 <=1 
C470: x14+x49 <=1 
C471: x14+x51-y14_51 <=1 
C472: x14+x53-y14_53 <=1 
C473: x14+x54 <=1 
C474: x14+x55-y14_55 <=1 
C475: x14+x57-y14_57 <=1 
C476: x14+x58 <=1 
C477: x15+x16-y15_16 <=1 
C478: x15+x17-y15_17 <=1 
C479: x15+x21 <=1 
C480: x15+x23-y15_23 <=1 
C481: x15+x24-y15_24 <=1 
C482: x15+x28 <=1 
C483: x15+x29-y15_29 <=1 
C484: x15+x30-y15_30 <=1 
C485: x15+x32-y15_32 <=1 
C486: x15+x34-y15_34 <=1 
C487: x15+x35 <=1 
C488: x15+x37-y15_37 <=1 
C489: x15+x39-y15_39 <=1 
C490: x15+x41 <=1 
C491: x15+x43-y15_43 <=1 
C492: x15+x44 <=1 
C493: x15+x46 <=1 
C494: x15+x48 <=1 
C495: x15+x50-y15_50 <=1 
C496: x15+x51 <=1 
C497: x15+x53 <=1 
C498: x15+x54 <=1 
C499: x15+x55-y15_55 <=1 
C500: x15+x56 <=1 
C501: x15+x58 <=1 
C502: x16+x19 <=1 
C503: x16+x22 <=1 
C504: x16+x26 <=1 
C505: x16+x28-y16_28 <=1 
C506: x16+x29-y16_29 <=1 
C507: x16+x31 <=1 
C508: x16+x33-y16_33 <=1 
C509: x16+x35-y16_35 <=1 
C510: x16+x37-y16_37 <=1 
C511: x16+x42-y16_42 <=1 
C512: x16+x43-y16_43 <=1 
C513: x16+x44-y16_44 <=1 
C514: x16+x45 <=1 
C515: x16+x48 <=1 
C516: x16+x50 <=1 
C517: x16+x53-y16_53 <=1 
C518: x16+x54-y16_54 <=1 
C519: x16+x56 <=1 
C520: x16+x58-y16_58 <=1 
C521: x16+x59 <=1 
C522: x17+x18 <=1 
C523: x17+x19-y17_19 <=1 
C524: x17+x20-y17_20 <=1 
C525: x17+x21 <=1 
C526: x17+x24 <=1 
C527: x17+x25 <=1 
C528: x17+x26-y17_26 <=1 
C529: x17+x29 <=1 
C530: x17+x30-y17_30 <=1 
C531: x17+x31 <=1 
C532: x17+x33 <=1 
C533: x17+x34-y17_34 <=1 
C534: x17+x39-y17_39 <=1 
C535: x17+x40-y17_40 <=1 
C536: x17+x41 <=1 
C537: x17+x42 <=1 
C538: x17+x47-y17_47 <=1 
C539: x17+x52-y17_52 <=1 
C540: x17+x55 <=1 
C541: x17+x56 <=1 
C542: x17+x57-y17_57 <=1 
C543: x17+x59-y17_59 <=1 
C544: x18+x19-y18_19 <=1 
C545: x18+x22-y18_22 <=1 
C546: x18+x26-y18_26 <=1 
C547: x18+x27-y18_27 <=1 
C548: x18+x28 <=1 
C549: x18+x29-y18_29 <=1 
C550: x18+x32 <=1 
C551: x18+x37 <=1 
C552: x18+x40-y18_40 <=1 
C553: x18+x41 <=1 
C554: x18+x42-y18_42 <=1 
C555: x18+x43-y18_43 <=1 
C556: x18+x46 <=1 
C557: x18+x47-y18_47 <=1 
C558: x18+x50 <=1 
C559: x18+x51 <=1 
C560: x18+x52 <=1 
C561: x18+x55 <=1 
C562: x18+x56 <=1 
C563: x18+x57 <=1 
C564: x18+x58 <=1 
C565: x19+x20-y19_20 <=1 
C566: x19+x21 <=1 
C567: x19+x25-y19_25 <=1 
C568: x19+x26 <=1 
C569: x19+x29 <=1 
C570: x19+x30-y19_30 <=1 
C571: x19+x31-y19_31 <=1 
C572: x19+x32 <=1 
C573: x19+x34-y19_34 <=1 
C574: x19+x35 <=1 
C575: x19+x37-y19_37 <=1 
C576: x19+x38-y19_38 <=1 
C577: x19+x39-y19_39 <=1 
C578: x19+x42 <=1 
C579: x19+x43-y19_43 <=1 
C580: x19+x44 <=1 
C581: x19+x45 <=1 
C582: x19+x46 <=1 
C583: x19+x47-y19_47 <=1 
C584: x19+x49 <=1 
C585: x19+x51 <=1 
C586: x19+x54 <=1 
C587: x19+x55 <=1 
C588: x19+x57-y19_57 <=1 
C589: x19+x59-y19_59 <=1 
C590: x20+x22-y20_22 <=1 
C591: x20+x23 <=1 
C592: x20+x24 <=1 
C593: x20+x25 <=1 
C594: x20+x26-y20_26 <=1 
C595: x20+x27 <=1 
C596: x20+x28-y20_28 <=1 
C597: x20+x29-y20_29 <=1 
C598: x20+x30-y20_30 <=1 
C599: x20+x33-y20_33 <=1 
C600: x20+x35 <=1 
C601: x20+x36 <=1 
C602: x20+x39-y20_39 <=1 
C603: x20+x42-y20_42 <=1 
C604: x20+x43 <=1 
C605: x20+x45 <=1 
C606: x20+x46-y20_46 <=1 
C607: x20+x52-y20_52 <=1 
C608: x20+x53 <=1 
C609: x20+x55-y20_55 <=1 
C610: x20+x56-y20_56 <=1 
C611: x20+x57-y20_57 <=1 
C612: x20+x58-y20_58 <=1 
C613: x20+x59 <=1 
C614: x21+x22 <=1 
C615: x21+x24 <=1 
C616: x21+x25 <=1 
C617: x21+x26-y21_26 <=1 
C618: x21+x27-y21_27 <=1 
C619: x21+x29 <=1 
C620: x21+x30 <=1 
C621: x21+x31 <=1 
C622: x21+x37 <=1 
C623: x21+x39-y21_39 <=1 
C624: x21+x40 <=1 
C625: x21+x42 <=1 
C626: x21+x43-y21_43 <=1 
C627: x21+x45-y21_45 <=1 
C628: x21+x46 <=1 
C629: x21+x47 <=1 
C630: x21+x48 <=1 
C631: x21+x49-y21_49 <=1 
C632: x21+x51 <=1 
C633: x21+x52 <=1 
C634: x21+x55 <=1 
C635: x21+x56-y21_56 <=1 
C636: x21+x57 <=1 
C637: x21+x59 <=1 
C638: x22+x24 <=1 
C639: x22+x25-y22_25 <=1 
C640: x22+x28 <=1 
C641: x22+x30-y22_30 <=1 
C642: x22+x31-y22_31 <=1 
C643: x22+x32-y22_32 <=1 
C644: x22+x34-y22_34 <=1 
C645: x22+x38 <=1 
C646: x22+x39-y22_39 <=1 
C647: x22+x43-y22_43 <=1 
C648: x22+x45-y22_45 <=1 
C649: x22+x46-y22_46 <=1 
C650: x22+x47-y22_47 <=1 
C651: x22+x48 <=1 
C652: x22+x49-y22_49 <=1 
C653: x22+x50 <=1 
C654: x22+x54-y22_54 <=1 
C655: x22+x56 <=1 
C656: x22+x58-y22_58 <=1 
C657: x23+x24-y23_24 <=1 
C658: x23+x25 <=1 
C659: x23+x26-y23_26 <=1 
C660: x23+x28 <=1 
C661: x23+x29 <=1 
C662: x23+x30 <=1 
C663: x23+x32 <=1 
C664: x23+x35 <=1 
C665: x23+x36 <=1 
C666: x23+x37-y23_37 <=1 
C667: x23+x41-y23_41 <=1 
C668: x23+x42-y23_42 <=1 
C669: x23+x43-y23_43 <=1 
C670: x23+x45 <=1 
C671: x23+x47-y23_47 <=1 
C672: x23+x48-y23_48 <=1 
C673: x23+x50-y23_50 <=1 
C674: x23+x54 <=1 
C675: x23+x56-y23_56 <=1 
C676: x23+x57 <=1 
C677: x23+x59-y23_59 <=1 
C678: x24+x26 <=1 
C679: x24+x33 <=1 
C680: x24+x35-y24_35 <=1 
C681: x24+x37-y24_37 <=1 
C682: x24+x39-y24_39 <=1 
C683: x24+x42 <=1 
C684: x24+x43-y24_43 <=1 
C685: x24+x44 <=1 
C686: x24+x46 <=1 
C687: x24+x47 <=1 
C688: x24+x48 <=1 
C689: x24+x54 <=1 
C690: x24+x55-y24_55 <=1 
C691: x24+x57-y24_57 <=1 
C692: x24+x58 <=1 
C693: x24+x59-y24_59 <=1 
C694: x25+x26 <=1 
C695: x25+x28 <=1 
C696: x25+x31 <=1 
C697: x25+x32-y25_32 <=1 
C698: x25+x33 <=1 
C699: x25+x35 <=1 
C700: x25+x36 <=1 
C701: x25+x37 <=1 
C702: x25+x38 <=1 
C703: x25+x40-y25_40 <=1 
C704: x25+x42 <=1 
C705: x25+x43 <=1 
C706: x25+x44 <=1 
C707: x25+x45 <=1 
C708: x25+x46-y25_46 <=1 
C709: x25+x48 <=1 
C710: x25+x49-y25_49 <=1 
C711: x25+x50 <=1 
C712: x25+x51 <=1 
C713: x25+x52-y25_52 <=1 
C714: x25+x53 <=1 
C715: x25+x54 <=1 
C716: x25+x56 <=1 
C717: x25+x57 <=1 
C718: x25+x58 <=1 
C719: x25+x59-y25_59 <=1 
C720: x26+x31 <=1 
C721: x26+x32 <=1 
C722: x26+x34 <=1 
C723: x26+x36-y26_36 <=1 
C724: x26+x37 <=1 
C725: x26+x38-y26_38 <=1 
C726: x26+x39-y26_39 <=1 
C727: x26+x44-y26_44 <=1 
C728: x26+x45-y26_45 <=1 
C729: x26+x49-y26_49 <=1 
C730: x26+x54 <=1 
C731: x26+x55 <=1 
C732: x26+x57 <=1 
C733: x26+x59-y26_59 <=1 
C734: x27+x28-y27_28 <=1 
C735: x27+x29 <=1 
C736: x27+x30-y27_30 <=1 
C737: x27+x31-y27_31 <=1 
C738: x27+x33 <=1 
C739: x27+x35 <=1 
C740: x27+x37 <=1 
C741: x27+x38 <=1 
C742: x27+x40 <=1 
C743: x27+x41-y27_41 <=1 
C744: x27+x43 <=1 
C745: x27+x44 <=1 
C746: x27+x45-y27_45 <=1 
C747: x27+x46-y27_46 <=1 
C748: x27+x48 <=1 
C749: x27+x50-y27_50 <=1 
C750: x27+x51-y27_51 <=1 
C751: x27+x54-y27_54 <=1 
C752: x27+x55-y27_55 <=1 
C753: x27+x58-y27_58 <=1 
C754: x27+x59-y27_59 <=1 
C755: x28+x29 <=1 
C756: x28+x30-y28_30 <=1 
C757: x28+x32 <=1 
C758: x28+x33-y28_33 <=1 
C759: x28+x34 <=1 
C760: x28+x35 <=1 
C761: x28+x36 <=1 
C762: x28+x38-y28_38 <=1 
C763: x28+x40-y28_40 <=1 
C764: x28+x43 <=1 
C765: x28+x44 <=1 
C766: x28+x45-y28_45 <=1 
C767: x28+x46 <=1 
C768: x28+x47 <=1 
C769: x28+x48-y28_48 <=1 
C770: x28+x50-y28_50 <=1 
C771: x28+x53-y28_53 <=1 
C772: x28+x55 <=1 
C773: x28+x56-y28_56 <=1 
C774: x28+x58-y28_58 <=1 
C775: x29+x30-y29_30 <=1 
C776: x29+x31-y29_31 <=1 
C777: x29+x32-y29_32 <=1 
C778: x29+x34 <=1 
C779: x29+x35 <=1 
C780: x29+x37 <=1 
C781: x29+x39 <=1 
C782: x29+x40-y29_40 <=1 
C783: x29+x42-y29_42 <=1 
C784: x29+x45-y29_45 <=1 
C785: x29+x47 <=1 
C786: x29+x48 <=1 
C787: x29+x50 <=1 
C788: x29+x51 <=1 
C789: x29+x52 <=1 
C790: x29+x53 <=1 
C791: x29+x54-y29_54 <=1 
C792: x29+x56-y29_56 <=1 
C793: x29+x57-y29_57 <=1 
C794: x30+x31-y30_31 <=1 
C795: x30+x32 <=1 
C796: x30+x33 <=1 
C797: x30+x34-y30_34 <=1 
C798: x30+x35-y30_35 <=1 
C799: x30+x38 <=1 
C800: x30+x40-y30_40 <=1 
C801: x30+x41 <=1 
C802: x30+x42-y30_42 <=1 
C803: x30+x43 <=1 
C804: x30+x44 <=1 
C805: x30+x45 <=1 
C806: x30+x46 <=1 
C807: x30+x48-y30_48 <=1 
C808: x30+x50-y30_50 <=1 
C809: x30+x51 <=1 
C810: x30+x52-y30_52 <=1 
C811: x30+x53 <=1 
C812: x30+x54 <=1 
C813: x30+x55-y30_55 <=1 
C814: x30+x56 <=1 
C815: x30+x59 <=1 
C816: x31+x34 <=1 
C817: x31+x35 <=1 
C818: x31+x36-y31_36 <=1 
C819: x31+x37 <=1 
C820: x31+x39-y31_39 <=1 
C821: x31+x41-y31_41 <=1 
C822: x31+x42 <=1 
C823: x31+x43-y31_43 <=1 
C824: x31+x44-y31_44 <=1 
C825: x31+x45-y31_45 <=1 
C826: x31+x52-y31_52 <=1 
C827: x31+x53-y31_53 <=1 
C828: x31+x54 <=1 
C829: x31+x58-y31_58 <=1 
C830: x31+x59 <=1 
C831: x32+x33-y32_33 <=1 
C832: x32+x34 <=1 
C833: x32+x35-y32_35 <=1 
C834: x32+x38-y32_38 <=1 
C835: x32+x42-y32_42 <=1 
C836: x32+x43-y32_43 <=1 
C837: x32+x44-y32_44 <=1 
C838: x32+x46 <=1 
C839: x32+x47 <=1 
C840: x32+x49-y32_49 <=1 
C841: x32+x50-y32_50 <=1 
C842: x32+x53 <=1 
C843: x32+x55 <=1 
C844: x32+x57-y32_57 <=1 
C845: x33+x34 <=1 
C846: x33+x35-y33_35 <=1 
C847: x33+x37-y33_37 <=1 
C848: x33+x38 <=1 
C849: x33+x40-y33_40 <=1 
C850: x33+x44 <=1 
C851: x33+x49 <=1 
C852: x33+x51 <=1 
C853: x33+x52-y33_52 <=1 
C854: x33+x53 <=1 
C855: x33+x54-y33_54 <=1 
C856: x33+x55 <=1 
C857: x33+x56 <=1 
C858: x33+x58 <=1 
C859: x33+x59-y33_59 <=1 
C860: x34+x35-y34_35 <=1 
C861: x34+x36-y34_36 <=1 
C862: x34+x39-y34_39 <=1 
C863: x34+x40 <=1 
C864: x34+x41 <=1 
C865: x34+x42-y34_42 <=1 
C866: x34+x44-y34_44 <=1 
C867: x34+x47-y34_47 <=1 
C868: x34+x48-y34_48 <=1 
C869: x34+x49 <=1 
C870: x34+x50 <=1 
C871: x34+x53 <=1 
C872: x34+x54 <=1 
C873: x34+x58-y34_58 <=1 
C874: x34+x59-y34_59 <=1 
C875: x35+x36-y35_36 <=1 
C876: x35+x37-y35_37 <=1 
C877: x35+x38 <=1 
C878: x35+x39 <=1 
C879: x35+x42-y35_42 <=1 
C880: x35+x44-y35_44 <=1 
C881: x35+x45-y35_45 <=1 
C882: x35+x47 <=1 
C883: x35+x48-y35_48 <=1 
C884: x35+x50-y35_50 <=1 
C885: x35+x51-y35_51 <=1 
C886: x35+x52 <=1 
C887: x35+x53-y35_53 <=1 
C888: x35+x54-y35_54 <=1 
C889: x35+x55-y35_55 <=1 
C890: x35+x56-y35_56 <=1 
C891: x35+x58-y35_58 <=1 
C892: x36+x37 <=1 
C893: x36+x38 <=1 
C894: x36+x39-y36_39 <=1 
C895: x36+x40-y36_40 <=1 
C896: x36+x45 <=1 
C897: x36+x46 <=1 
C898: x36+x47 <=1 
C899: x36+x48-y36_48 <=1 
C900: x36+x49-y36_49 <=1 
C901: x36+x50 <=1 
C902: x36+x53-y36_53 <=1 
C903: x36+x54 <=1 
C904: x36+x57-y36_57 <=1 
C905: x36+x59 <=1 
C906: x37+x41-y37_41 <=1 
C907: x37+x43 <=1 
C908: x37+x45 <=1 
C909: x37+x46-y37_46 <=1 
C910: x37+x47 <=1 
C911: x37+x48-y37_48 <=1 
C912: x37+x51 <=1 
C913: x37+x52-y37_52 <=1 
C914: x37+x53 <=1 
C915: x37+x54 <=1 
C916: x37+x56-y37_56 <=1 
C917: x38+x39-y38_39 <=1 
C918: x38+x42 <=1 
C919: x38+x43 <=1 
C920: x38+x45 <=1 
C921: x38+x46 <=1 
C922: x38+x47-y38_47 <=1 
C923: x38+x50 <=1 
C924: x38+x52 <=1 
C925: x38+x55-y38_55 <=1 
C926: x38+x56 <=1 
C927: x38+x58-y38_58 <=1 
C928: x38+x59 <=1 
C929: x39+x41-y39_41 <=1 
C930: x39+x42 <=1 
C931: x39+x43-y39_43 <=1 
C932: x39+x45-y39_45 <=1 
C933: x39+x47-y39_47 <=1 
C934: x39+x50 <=1 
C935: x39+x52 <=1 
C936: x39+x53-y39_53 <=1 
C937: x39+x54-y39_54 <=1 
C938: x39+x56-y39_56 <=1 
C939: x39+x57 <=1 
C940: x39+x58-y39_58 <=1 
C941: x39+x59-y39_59 <=1 
C942: x40+x41 <=1 
C943: x40+x43 <=1 
C944: x40+x44-y40_44 <=1 
C945: x40+x45 <=1 
C946: x40+x46 <=1 
C947: x40+x49 <=1 
C948: x40+x50 <=1 
C949: x40+x52 <=1 
C950: x40+x53 <=1 
C951: x40+x54 <=1 
C952: x40+x55-y40_55 <=1 
C953: x40+x56-y40_56 <=1 
C954: x40+x57-y40_57 <=1 
C955: x40+x58 <=1 
C956: x41+x43-y41_43 <=1 
C957: x41+x44-y41_44 <=1 
C958: x41+x46 <=1 
C959: x41+x50 <=1 
C960: x41+x51-y41_51 <=1 
C961: x41+x54 <=1 
C962: x41+x57 <=1 
C963: x41+x59-y41_59 <=1 
C964: x42+x43-y42_43 <=1 
C965: x42+x45 <=1 
C966: x42+x47-y42_47 <=1 
C967: x42+x48-y42_48 <=1 
C968: x42+x49 <=1 
C969: x42+x51-y42_51 <=1 
C970: x42+x54 <=1 
C971: x42+x55-y42_55 <=1 
C972: x42+x56-y42_56 <=1 
C973: x42+x58-y42_58 <=1 
C974: x43+x45-y43_45 <=1 
C975: x43+x47 <=1 
C976: x43+x48 <=1 
C977: x43+x49 <=1 
C978: x43+x50 <=1 
C979: x43+x53 <=1 
C980: x43+x54-y43_54 <=1 
C981: x43+x56-y43_56 <=1 
C982: x43+x57 <=1 
C983: x43+x58 <=1 
C984: x43+x59-y43_59 <=1 
C985: x44+x45-y44_45 <=1 
C986: x44+x47 <=1 
C987: x44+x49 <=1 
C988: x44+x51 <=1 
C989: x44+x53-y44_53 <=1 
C990: x44+x54 <=1 
C991: x44+x55-y44_55 <=1 
C992: x44+x58 <=1 
C993: x45+x47-y45_47 <=1 
C994: x45+x48 <=1 
C995: x45+x50-y45_50 <=1 
C996: x45+x51-y45_51 <=1 
C997: x45+x52-y45_52 <=1 
C998: x45+x53 <=1 
C999: x45+x55-y45_55 <=1 
C1000: x45+x57-y45_57 <=1 
C1001: x45+x58-y45_58 <=1 
C1002: x45+x59-y45_59 <=1 
C1003: x46+x48 <=1 
C1004: x46+x49-y46_49 <=1 
C1005: x46+x51-y46_51 <=1 
C1006: x46+x53-y46_53 <=1 
C1007: x46+x54 <=1 
C1008: x46+x56-y46_56 <=1 
C1009: x46+x57 <=1 
C1010: x46+x59-y46_59 <=1 
C1011: x47+x48 <=1 
C1012: x47+x49 <=1 
C1013: x47+x51 <=1 
C1014: x47+x52-y47_52 <=1 
C1015: x47+x54-y47_54 <=1 
C1016: x47+x55 <=1 
C1017: x47+x56-y47_56 <=1 
C1018: x47+x57 <=1 
C1019: x47+x58-y47_58 <=1 
C1020: x48+x49-y48_49 <=1 
C1021: x48+x52-y48_52 <=1 
C1022: x48+x54-y48_54 <=1 
C1023: x48+x55-y48_55 <=1 
C1024: x48+x56-y48_56 <=1 
C1025: x48+x59-y48_59 <=1 
C1026: x49+x51-y49_51 <=1 
C1027: x49+x56 <=1 
C1028: x49+x59-y49_59 <=1 
C1029: x50+x51 <=1 
C1030: x50+x52-y50_52 <=1 
C1031: x50+x53-y50_53 <=1 
C1032: x50+x54-y50_54 <=1 
C1033: x50+x56 <=1 
C1034: x50+x58-y50_58 <=1 
C1035: x51+x53 <=1 
C1036: x51+x54-y51_54 <=1 
C1037: x51+x55 <=1 
C1038: x51+x56 <=1 
C1039: x51+x57-y51_57 <=1 
C1040: x51+x58 <=1 
C1041: x51+x59-y51_59 <=1 
C1042: x52+x53 <=1 
C1043: x52+x54 <=1 
C1044: x52+x55 <=1 
C1045: x52+x56-y52_56 <=1 
C1046: x52+x58-y52_58 <=1 
C1047: x54+x55 <=1 
C1048: x54+x56-y54_56 <=1 
C1049: x54+x57-y54_57 <=1 
C1050: x54+x58-y54_58 <=1 
C1051: x55+x58-y55_58 <=1 
C1052: x55+x59-y55_59 <=1 
C1053: x56+x57-y56_57 <=1 
C1054: x56+x58 <=1 
C1055: x56+x59 <=1 
C1056: x57+x58-y57_58 <=1 
C1057: x57+x59-y57_59 <=1 

binary
x0
x1
x2
x3
x4
x5
x6
x7
x8
x9
x10
x11
x12
x13
x14
x15
x16
x17
x18
x19
x20
x21
x22
x23
x24
x25
x26
x27
x28
x29
x30
x31
x32
x33
x34
x35
x36
x37
x38
x39
x40
x41
x42
x43
x44
x45
x46
x47
x48
x49
x50
x51
x52
x53
x54
x55
x56
x57
x58
x59
